(set-info :smt-lib-version 2.6)
(set-logic QF_S)
(set-info :source |
Generated by: Murphy Berzish, Mitja Kulczynski, Federico Mora, Florin Manea, Joel Day, Dirk Nowotka, Vijay Ganesh, Zhengyang Lu
Generated on: 2020-10-01
Description: Translated from a collection of real-world regex queries, AutomataArk, collected by Loris D’Antoni and Fang Wang: https://github.com/lorisdanto/automatark
Application: Evaluate solvers on real-world regex queries
Target solver: Z3str3RE, CVC4, OSTRICH, Z3seq, Z3str3, Z3-Trau
Publications: Berzish, M., Kulczynski, M., Mora, F., Manea, F., Day, J. D., Nowotka, D., & Ganesh, V. (2021, July). An SMT solver for regular expressions and linear arithmetic over string length. In CAV 2021.
|)
(set-info :license "https://creativecommons.org/licenses/by/4.0/")
(set-info :category "industrial")
(set-info :status sat)

(declare-const X String)
(assert (not (str.in_re X (re.++ (re.+ (re.++ (re.* (re.union (str.to_re " ") (str.to_re "\u{9}") (str.to_re "\u{a}") (str.to_re "\u{c}") (str.to_re "\u{d}"))) (re.opt (str.to_re ",")) (re.* (re.union (str.to_re " ") (str.to_re "\u{9}") (str.to_re "\u{a}") (str.to_re "\u{c}") (str.to_re "\u{d}"))) (re.+ (re.union (re.range "0" "9") (re.range "A" "Z") (re.range "a" "z") (str.to_re "_"))) (re.* (re.++ (re.union (str.to_re "-") (str.to_re "+") (str.to_re ".")) (re.+ (re.union (re.range "0" "9") (re.range "A" "Z") (re.range "a" "z") (str.to_re "_"))))) (str.to_re "@") (re.+ (re.union (re.range "0" "9") (re.range "A" "Z") (re.range "a" "z") (str.to_re "_"))) (re.* (re.++ (re.union (str.to_re "-") (str.to_re ".")) (re.+ (re.union (re.range "0" "9") (re.range "A" "Z") (re.range "a" "z") (str.to_re "_"))))) (str.to_re ".") (re.+ (re.union (re.range "0" "9") (re.range "A" "Z") (re.range "a" "z") (str.to_re "_"))) (re.* (re.++ (re.union (str.to_re "-") (str.to_re ".")) (re.+ (re.union (re.range "0" "9") (re.range "A" "Z") (re.range "a" "z") (str.to_re "_"))))))) (str.to_re "\u{a}")))))
(assert (not (str.in_re X (re.++ (str.to_re "/5FDC81917DE08A41A6AC") (re.union (re.++ (str.to_re "E9B8ECA1EE") re.allchar (str.to_re "8")) (re.++ re.allchar (str.to_re "98ECB1EEA8E"))) (str.to_re "/smi\u{a}")))))
(assert (str.in_re X (re.union (re.++ (re.union (re.++ (str.to_re "3") (re.union (str.to_re "0") (str.to_re "1"))) (re.++ (str.to_re "0") (re.range "1" "9")) (re.++ (re.union (str.to_re "1") (str.to_re "2")) (re.range "0" "9"))) (re.union (str.to_re "-") (str.to_re "/")) (re.union (re.++ (str.to_re "0") (re.union (str.to_re "1") (str.to_re "3") (str.to_re "5") (str.to_re "7") (str.to_re "8"))) (re.++ (str.to_re "1") (re.union (str.to_re "0") (str.to_re "2")))) (re.union (str.to_re "-") (str.to_re "/")) (re.range "1" "9") (re.range "0" "9") (re.range "0" "9") (re.range "0" "9")) (re.++ (re.union (str.to_re "30") (re.++ (str.to_re "0") (re.range "1" "9")) (re.++ (re.union (str.to_re "1") (str.to_re "2")) (re.range "0" "9"))) (re.union (str.to_re "-") (str.to_re "/")) (re.union (re.++ (str.to_re "0") (re.union (str.to_re "1") (str.to_re "3") (str.to_re "4") (str.to_re "5") (str.to_re "6") (str.to_re "7") (str.to_re "8") (str.to_re "9"))) (re.++ (str.to_re "1") (re.union (str.to_re "0") (str.to_re "1") (str.to_re "2")))) (re.union (str.to_re "-") (str.to_re "/")) (re.range "1" "9") (re.range "0" "9") (re.range "0" "9") (re.range "0" "9")) (re.++ (re.union (re.++ (str.to_re "0") (re.range "1" "9")) (re.++ (re.union (str.to_re "1") (str.to_re "2")) (re.range "0" "9"))) (re.union (str.to_re "-") (str.to_re "/")) (str.to_re "02") (re.union (str.to_re "-") (str.to_re "/")) (re.range "1" "9") (re.range "0" "9") (re.union (re.++ (re.union (str.to_re "0") (str.to_re "2") (str.to_re "4") (str.to_re "6") (str.to_re "8")) (re.union (str.to_re "0") (str.to_re "4") (str.to_re "8"))) (re.++ (re.union (str.to_re "1") (str.to_re "3") (str.to_re "5") (str.to_re "7") (str.to_re "9")) (re.union (str.to_re "2") (str.to_re "6"))))) (re.++ (str.to_re "\u{a}") (re.union (re.++ (str.to_re "0") (re.range "1" "9")) (re.++ (re.union (str.to_re "1") (str.to_re "2")) (re.range "0" "8"))) (re.union (str.to_re "-") (str.to_re "/")) (str.to_re "02") (re.union (str.to_re "-") (str.to_re "/")) (re.range "1" "9") (re.range "0" "9") (re.range "0" "9") (re.range "0" "9")))))
(assert (not (str.in_re X (re.union ((_ re.loop 8 8) (re.range "0" "9")) (re.++ (str.to_re "R") ((_ re.loop 7 7) (re.range "0" "9"))) (re.++ (str.to_re "\u{a}") (re.union (str.to_re "AC") (str.to_re "FC") (str.to_re "GE") (str.to_re "GN") (str.to_re "GS") (str.to_re "IC") (str.to_re "IP") (str.to_re "LP") (str.to_re "NA") (str.to_re "NF") (str.to_re "NI") (str.to_re "NL") (str.to_re "NO") (str.to_re "NP") (str.to_re "NR") (str.to_re "NZ") (str.to_re "OC") (str.to_re "RC") (str.to_re "SA") (str.to_re "SC") (str.to_re "SF") (str.to_re "SI") (str.to_re "SL") (str.to_re "SO") (str.to_re "SP") (str.to_re "SR")) ((_ re.loop 6 6) (re.range "0" "9")))))))
(assert (not (str.in_re X (re.++ (str.to_re "<!--") (re.* (re.union (re.comp (re.union (str.to_re " ") (str.to_re "\u{9}") (str.to_re "\u{a}") (str.to_re "\u{c}") (str.to_re "\u{d}"))) (str.to_re " ") (str.to_re "\u{9}") (str.to_re "\u{a}") (str.to_re "\u{c}") (str.to_re "\u{d}"))) (str.to_re "--") (re.* (re.union (str.to_re " ") (str.to_re "\u{9}") (str.to_re "\u{a}") (str.to_re "\u{d}"))) (str.to_re ">\u{a}")))))
(check-sat)

(exit)
